50
    1   394   357
    2   417   417
    3   491   519
    4   444   448
    5    27    41
    6   498   527
    7   629   594
    8   409   425
    9    22    58
   10   190   207
   11   530   497
   12   185   168
   13   181   177
   14   395   393
   15   496   538
   16   171   162
   17   583   578
   18   565   541
   19   262   254
   20    54    51
   21   134   170
   22   541   597
   23   159   137
   24   469   460
   25   488   434
   26   135   125
   27   372   399
   28   166   189
   29   406   355
   30   513   532
   31   350   335
   32   158   113
   33    97    65
   34   215   250
   35     7    57
   36   141   174
   37   558   553
   38   294   274
   39   420   441
   40    88    44
   41   391   372
   42   508   455
   43   575   515
   44   187   155
   45   136   156
   46   134   136
   47    38    47
   48   285   239
   49   344   396
   50   187   213
601
